# Solution for model r5_t36_m8_5 Batch Number: 8
# Finished Task: 33 / 36
# Makespan: 1037.0, Total Distance: 727.0, Total Time: 1.8507
# R O S F Batch
0 0 31 0.0 0.0 -1
1 1 9 0.0 0.0 -1
2 2 19 0.0 0.0 -1
3 3 23 0.0 0.0 -1
4 4 12 0.0 0.0 -1
5 0 -1 1007.0 1037.0 7
6 2 13 678.0 716.0 2
7 2 15 286.0 313.0 0
8 2 32 389.0 412.0 0
9 1 11 156.0 188.0 0
10 2 6 648.0 670.0 1
11 1 27 241.0 265.0 0
12 4 33 108.0 145.0 0
13 2 40 737.0 760.0 2
14 0 35 530.0 557.0 3
15 2 8 357.0 381.0 0
16 -1 -1 -1.0 -1.0 6
17 2 -1 867.0 887.0 4
18 2 10 590.0 628.0 1
19 2 7 231.0 251.0 0
20 3 30 443.0 469.0 3
21 3 20 415.0 443.0 0
22 -1 -1 -1.0 -1.0 6
23 3 21 382.0 407.0 0
24 2 17 821.0 841.0 4
25 1 34 407.0 436.0 2
26 0 37 662.0 691.0 5
27 1 25 314.0 351.0 1
28 -1 -1 -1.0 -1.0 6
29 4 36 903.0 941.0 6
30 3 38 477.0 497.0 3
31 0 14 489.0 509.0 0
32 2 18 539.0 564.0 0
33 4 39 796.0 826.0 5
34 1 -1 965.0 988.0 6
35 0 26 598.0 623.0 5
36 4 -1 980.0 1004.0 7
37 0 5 933.0 958.0 6
38 3 -1 960.0 988.0 6
39 4 29 862.0 894.0 6
40 2 24 772.0 792.0 4
